[[  0.   1.   1.   1.   1. 510. 510. 510.   1. 480. 480. 480.   1. 490.
  490. 490.]
 [  1.   0.   1.   1. 510.   1. 510. 510. 480.   1. 480. 480. 490.   1.
  490. 490.]
 [  1.   1.   0.   1. 510. 510.   1. 510. 480. 480.   1. 480. 490. 490.
    1. 490.]
 [  1.   1.   1.   0. 510. 510. 510.   1. 480. 480. 480.   1. 490. 490.
  490.   1.]
 [  1. 510. 510. 510.   0.   1.   1.   1. 240. 240. 240. 240. 370. 370.
  370. 370.]
 [510.   1. 510. 510.   1.   0.   1.   1. 240. 240. 240. 240. 370. 370.
  370. 370.]
 [510. 510.   1. 510.   1.   1.   0.   1. 240. 240. 240. 240. 370. 370.
  370. 370.]
 [510. 510. 510.   1.   1.   1.   1.   0. 240. 240. 240. 240. 370. 370.
  370. 370.]
 [  1. 480. 480. 480. 240. 240. 240. 240.   0.   1.   1.   1. 220. 220.
  220. 220.]
 [480.   1. 480. 480. 240. 240. 240. 240.   1.   0.   1.   1. 220. 220.
  220. 220.]
 [480. 480.   1. 480. 240. 240. 240. 240.   1.   1.   0.   1. 220. 220.
  220. 220.]
 [480. 480. 480.   1. 240. 240. 240. 240.   1.   1.   1.   0. 220. 220.
  220. 220.]
 [  1. 490. 490. 490. 370. 370. 370. 370. 220. 220. 220. 220.   0.   1.
    1.   1.]
 [490.   1. 490. 490. 370. 370. 370. 370. 220. 220. 220. 220.   1.   0.
    1.   1.]
 [490. 490.   1. 490. 370. 370. 370. 370. 220. 220. 220. 220.   1.   1.
    0.   1.]
 [490. 490. 490.   1. 370. 370. 370. 370. 220. 220. 220. 220.   1.   1.
    1.   0.]]